c Generated map
c Size: 12 * 12, weights in range: 1 to 10, walls: True, with ratio 0.05
c dim 1 of 5
c
p sp 144 237
c graph contains 144 nodes and 237 arcs
c
a 1 13 3
a 13 1 3
a 1 2 5
a 2 1 5
a 2 3 6
a 3 2 6
a 3 15 10
a 15 3 10
a 3 4 8
a 4 3 8
a 6 18 3
a 18 6 3
a 6 7 10
a 7 6 10
a 7 19 10
a 19 7 10
a 7 8 10
a 8 7 10
a 8 20 1
a 20 8 1
a 8 9 5
a 9 8 5
a 9 21 1
a 21 9 1
a 9 10 1
a 10 9 1
a 10 22 8
a 22 10 8
a 10 11 8
a 11 10 8
a 11 23 4
a 23 11 4
a 11 12 8
a 12 11 8
a 12 24 10
a 24 12 10
a 13 25 1
a 25 13 1
a 17 29 6
a 29 17 6
a 17 18 2
a 18 17 2
a 18 30 4
a 30 18 4
a 18 19 1
a 19 18 1
a 19 31 10
a 31 19 10
a 19 20 7
a 20 19 7
a 20 32 10
a 32 20 10
a 20 21 1
a 21 20 1
a 21 33 5
a 33 21 5
a 21 22 7
a 22 21 7
a 22 34 1
a 34 22 1
a 22 23 8
a 23 22 8
a 23 35 7
a 35 23 7
a 23 24 8
a 24 23 8
a 24 36 4
a 36 24 4
a 25 37 6
a 37 25 6
a 25 26 8
a 26 25 8
a 26 38 8
a 38 26 8
a 28 40 10
a 40 28 10
a 28 29 5
a 29 28 5
a 29 41 9
a 41 29 9
a 29 30 2
a 30 29 2
a 30 42 6
a 42 30 6
a 30 31 6
a 31 30 6
a 31 43 7
a 43 31 7
a 31 32 7
a 32 31 7
a 32 44 6
a 44 32 6
a 32 33 2
a 33 32 2
a 33 45 3
a 45 33 3
a 33 34 4
a 34 33 4
a 34 46 4
a 46 34 4
a 34 35 3
a 35 34 3
a 35 47 1
a 47 35 1
a 35 36 7
a 36 35 7
a 36 48 6
a 48 36 6
a 37 49 9
a 49 37 9
a 37 38 4
a 38 37 4
a 38 50 5
a 50 38 5
a 38 39 6
a 39 38 6
a 39 51 9
a 51 39 9
a 39 40 6
a 40 39 6
a 40 52 3
a 52 40 3
a 40 41 6
a 41 40 6
a 41 53 4
a 53 41 4
a 41 42 8
a 42 41 8
a 42 54 10
a 54 42 10
a 42 43 4
a 43 42 4
a 43 55 10
a 55 43 10
a 43 44 10
a 44 43 10
a 44 56 10
a 56 44 10
a 44 45 1
a 45 44 1
a 45 57 5
a 57 45 5
a 45 46 8
a 46 45 8
a 46 58 4
a 58 46 4
a 46 47 8
a 47 46 8
a 47 59 7
a 59 47 7
a 47 48 3
a 48 47 3
a 48 60 3
a 60 48 3
a 49 61 10
a 61 49 10
a 49 50 3
a 50 49 3
a 50 62 6
a 62 50 6
a 50 51 4
a 51 50 4
a 51 63 4
a 63 51 4
a 51 52 9
a 52 51 9
a 52 64 1
a 64 52 1
a 52 53 4
a 53 52 4
a 53 65 6
a 65 53 6
a 53 54 8
a 54 53 8
a 54 66 5
a 66 54 5
a 54 55 3
a 55 54 3
a 55 67 7
a 67 55 7
a 55 56 8
a 56 55 8
a 56 68 9
a 68 56 9
a 56 57 3
a 57 56 3
a 57 69 4
a 69 57 4
a 57 58 10
a 58 57 10
a 58 70 8
a 70 58 8
a 58 59 8
a 59 58 8
a 59 71 1
a 71 59 1
a 59 60 7
a 60 59 7
a 60 72 6
a 72 60 6
a 61 73 3
a 73 61 3
a 61 62 8
a 62 61 8
a 62 74 6
a 74 62 6
a 62 63 7
a 63 62 7
a 63 75 8
a 75 63 8
a 63 64 2
a 64 63 2
a 64 76 4
a 76 64 4
a 64 65 8
a 65 64 8
a 65 77 9
a 77 65 9
a 65 66 3
a 66 65 3
a 66 67 7
a 67 66 7
a 67 79 3
a 79 67 3
a 67 68 2
a 68 67 2
a 68 80 6
a 80 68 6
a 68 69 1
a 69 68 1
a 69 81 8
a 81 69 8
a 69 70 4
a 70 69 4
a 70 82 5
a 82 70 5
a 70 71 7
a 71 70 7
a 71 83 9
a 83 71 9
a 71 72 1
a 72 71 1
a 72 84 9
a 84 72 9
a 73 85 1
a 85 73 1
a 73 74 10
a 74 73 10
a 74 86 8
a 86 74 8
a 74 75 10
a 75 74 10
a 75 87 8
a 87 75 8
a 75 76 10
a 76 75 10
a 76 88 7
a 88 76 7
a 76 77 5
a 77 76 5
a 77 89 9
a 89 77 9
a 79 91 2
a 91 79 2
a 79 80 7
a 80 79 7
a 80 81 8
a 81 80 8
a 81 93 7
a 93 81 7
a 81 82 2
a 82 81 2
a 82 94 8
a 94 82 8
a 82 83 4
a 83 82 4
a 83 95 4
a 95 83 4
a 83 84 1
a 84 83 1
a 84 96 9
a 96 84 9
a 85 97 3
a 97 85 3
a 85 86 2
a 86 85 2
a 86 98 3
a 98 86 3
a 86 87 6
a 87 86 6
a 87 99 8
a 99 87 8
a 87 88 4
a 88 87 4
a 88 100 5
a 100 88 5
a 88 89 1
a 89 88 1
a 89 101 6
a 101 89 6
a 89 90 5
a 90 89 5
a 90 102 8
a 102 90 8
a 90 91 8
a 91 90 8
a 91 103 7
a 103 91 7
a 93 105 9
a 105 93 9
a 93 94 9
a 94 93 9
a 94 106 2
a 106 94 2
a 94 95 7
a 95 94 7
a 95 107 10
a 107 95 10
a 95 96 8
a 96 95 8
a 96 108 1
a 108 96 1
a 97 109 8
a 109 97 8
a 97 98 7
a 98 97 7
a 98 110 3
a 110 98 3
a 98 99 8
a 99 98 8
a 99 111 7
a 111 99 7
a 99 100 8
a 100 99 8
a 100 112 4
a 112 100 4
a 100 101 9
a 101 100 9
a 101 113 9
a 113 101 9
a 101 102 5
a 102 101 5
a 102 114 6
a 114 102 6
a 102 103 3
a 103 102 3
a 103 115 7
a 115 103 7
a 103 104 6
a 104 103 6
a 104 116 3
a 116 104 3
a 104 105 1
a 105 104 1
a 105 117 1
a 117 105 1
a 105 106 8
a 106 105 8
a 106 118 5
a 118 106 5
a 106 107 4
a 107 106 4
a 107 108 1
a 108 107 1
a 108 120 2
a 120 108 2
a 109 121 8
a 121 109 8
a 109 110 3
a 110 109 3
a 110 122 5
a 122 110 5
a 110 111 6
a 111 110 6
a 111 123 8
a 123 111 8
a 111 112 10
a 112 111 10
a 112 124 3
a 124 112 3
a 112 113 1
a 113 112 1
a 113 125 7
a 125 113 7
a 113 114 9
a 114 113 9
a 114 126 2
a 126 114 2
a 114 115 4
a 115 114 4
a 115 127 9
a 127 115 9
a 115 116 1
a 116 115 1
a 116 128 5
a 128 116 5
a 116 117 7
a 117 116 7
a 117 129 2
a 129 117 2
a 117 118 1
a 118 117 1
a 118 130 8
a 130 118 8
a 120 132 3
a 132 120 3
a 121 133 2
a 133 121 2
a 121 122 3
a 122 121 3
a 122 134 8
a 134 122 8
a 122 123 6
a 123 122 6
a 123 135 8
a 135 123 8
a 123 124 7
a 124 123 7
a 124 136 8
a 136 124 8
a 124 125 1
a 125 124 1
a 125 137 7
a 137 125 7
a 125 126 3
a 126 125 3
a 126 138 5
a 138 126 5
a 126 127 8
a 127 126 8
a 127 139 4
a 139 127 4
a 127 128 8
a 128 127 8
a 128 140 10
a 140 128 10
a 128 129 8
a 129 128 8
a 129 141 4
a 141 129 4
a 129 130 1
a 130 129 1
a 130 142 5
a 142 130 5
a 130 131 1
a 131 130 1
a 131 143 3
a 143 131 3
a 131 132 6
a 132 131 6
a 132 144 9
a 144 132 9
a 133 134 4
a 134 133 4
a 134 135 9
a 135 134 9
a 135 136 6
a 136 135 6
a 136 137 2
a 137 136 2
a 137 138 8
a 138 137 8
a 138 139 8
a 139 138 8
a 139 140 1
a 140 139 1
a 140 141 9
a 141 140 9
a 141 142 10
a 142 141 10
a 142 143 8
a 143 142 8
a 143 144 1
a 144 143 1
